NAME = file175,
TOURSIZE = 175,
LENGTH = 22192,
1,2,10,9,8,7,6,5,11,12,13,14,15,16,17,18,19,20,21,22,63,24,65,23,25,26,27,28,29,30,31,119,32,4,55,54,52,51,50,49,47,48,84,46,45,83,44,43,42,82,40,41,39,37,35,34,33,36,79,38,81,80,98,97,99,85,101,102,86,87,56,58,60,59,61,62,64,66,68,67,69,70,71,72,73,74,75,76,77,95,109,94,108,93,107,92,91,106,105,90,89,104,103,88,53,57,100,147,148,115,158,162,169,170,171,168,172,173,174,112,160,113,114,159,157,116,156,161,155,154,153,152,163,175,118,151,150,149,111,110,117,165,166,167,121,140,133,132,131,130,129,128,127,126,125,124,123,122,134,120,164,146,145,144,143,135,141,142,139,138,137,136,96,78,3
